(set-logic HORN)
(declare-fun assert_247_29_8_abs0 (Int Int Int Int Int) Bool)
(declare-fun assign_220_27_3_abs0 (Int Int Int Int Int) Bool)
(declare-fun assert_211_26_10_abs0 (Int Int Int Int Int) Bool)
(declare-fun assert_197_25_10_abs0 (Int Int Int Int Int) Bool)
(declare-fun while_223_23_1_abs0 (Int Int Int Int Int) Bool)
(declare-fun assign_157_22_8_abs0 (Int Int Int Int Int) Bool)
(declare-fun assign_148_20_5_abs0 (Int Int Int Int Int) Bool)
(declare-fun assign_136_18_2_abs0 (Int Int Int Int Int) Bool)
(declare-fun assign_127_17_2_abs0 (Int Int Int Int Int) Bool)
(declare-fun if_140_16_5_abs0 (Int Int Int Int Int) Bool)
(declare-fun assert_108_15_13_abs0 (Int Int Int Int Int) Bool)
(declare-fun while_151_14_1_abs0 (Int Int Int Int Int) Bool)
(declare-fun assign_68_13_8_abs0 (Int Int Int Int Int) Bool)
(declare-fun assign_62_12_1_abs0 (Int Int Int Int Int) Bool)
(declare-fun assign_53_11_1_abs0 (Int Int Int Int Int) Bool)
(declare-fun end_abs0 (Int Int Int Int Int) Bool)
(declare-fun start_abs0 (Int Int Int Int Int) Bool)
(assert (forall ((a (Array Int Int)) (pos Int) (N Int) (i Int) (vabs_f_f Int)) (start_abs0 vabs_f_f (select a vabs_f_f) pos N i)))
(assert (forall ((i Int) (N Int) (pos Int) (a (Array Int Int)) (vabs_0_f_f Int)) (=> (start_abs0 vabs_0_f_f (select a vabs_0_f_f) pos N i) (assign_53_11_1_abs0 vabs_0_f_f (select a vabs_0_f_f) pos N i))))
(assert (forall ((rnd Int) (i Int) (N Int) (pos Int) (a (Array Int Int)) (vabs_0_f_f Int)) (=> (assign_53_11_1_abs0 vabs_0_f_f (select a vabs_0_f_f) pos N i) (assign_62_12_1_abs0 vabs_0_f_f (select a vabs_0_f_f) pos rnd i))))
(assert (forall ((i Int) (N Int) (pos Int) (a (Array Int Int)) (vabs_0_f_f Int)) (=> (assign_62_12_1_abs0 vabs_0_f_f (select a vabs_0_f_f) pos N i) (assign_68_13_8_abs0 vabs_0_f_f (select a vabs_0_f_f) (- 0 1) N i))))
(assert (forall ((i Int) (N Int) (pos Int) (a (Array Int Int)) (vabs_0_f_f Int)) (=> (assign_68_13_8_abs0 vabs_0_f_f (select a vabs_0_f_f) pos N i) (while_151_14_1_abs0 vabs_0_f_f (select a vabs_0_f_f) pos N 0))))
(assert (forall ((a (Array Int Int)) (pos Int) (N Int) (i Int) (vabs_0_f_f Int)) (=> (and (while_151_14_1_abs0 vabs_0_f_f (select a vabs_0_f_f) pos N i) (< i N)) (assert_108_15_13_abs0 vabs_0_f_f (select a vabs_0_f_f) pos N i))))
(assert (forall ((a (Array Int Int)) (pos Int) (N Int) (i Int) (vabs_0_f_f Int)) (=> (and (while_151_14_1_abs0 vabs_0_f_f (select a vabs_0_f_f) pos N i) (not (< i N))) (assign_157_22_8_abs0 vabs_0_f_f (select a vabs_0_f_f) pos N i))))
(assert (forall ((k Int) (i Int) (N Int) (pos Int) (a (Array Int Int))) (=> (and (assert_108_15_13_abs0 k (select a k) pos N i) (>= k 0) (< k i)) (= (select a k) 0))))
(assert (forall ((i Int) (N Int) (pos Int) (a (Array Int Int)) (vabs_0_f_f Int)) (=> (assert_108_15_13_abs0 vabs_0_f_f (select a vabs_0_f_f) pos N i) (if_140_16_5_abs0 vabs_0_f_f (select a vabs_0_f_f) pos N i))))
(assert (forall ((a (Array Int Int)) (pos Int) (N Int) (i Int) (vabs_0_f_f Int)) (=> (and (if_140_16_5_abs0 i (select a i) pos N i) (if_140_16_5_abs0 vabs_0_f_f (select a vabs_0_f_f) pos N i) (not (= (select a i) 0))) (assign_127_17_2_abs0 vabs_0_f_f (select a vabs_0_f_f) pos N i))))
(assert (forall ((a (Array Int Int)) (pos Int) (N Int) (i Int) (vabs_0_f_f Int)) (=> (and (if_140_16_5_abs0 i (select a i) pos N i) (if_140_16_5_abs0 vabs_0_f_f (select a vabs_0_f_f) pos N i) (not (not (= (select a i) 0)))) (assign_148_20_5_abs0 vabs_0_f_f (select a vabs_0_f_f) pos N i))))
(assert (forall ((i Int) (N Int) (pos Int) (a (Array Int Int)) (vabs_0_f_f Int)) (=> (assign_127_17_2_abs0 vabs_0_f_f (select a vabs_0_f_f) pos N i) (assign_136_18_2_abs0 vabs_0_f_f (select a vabs_0_f_f) i N i))))
(assert (forall ((i Int) (N Int) (pos Int) (a (Array Int Int)) (vabs_0_f_f Int)) (=> (assign_136_18_2_abs0 vabs_0_f_f (select a vabs_0_f_f) pos N i) (assign_148_20_5_abs0 vabs_0_f_f (select a vabs_0_f_f) pos N (+ N 2)))))
(assert (forall ((i Int) (N Int) (pos Int) (a (Array Int Int)) (vabs_0_f_f Int)) (=> (assign_148_20_5_abs0 vabs_0_f_f (select a vabs_0_f_f) pos N i) (while_151_14_1_abs0 vabs_0_f_f (select a vabs_0_f_f) pos N (+ i 1)))))
(assert (forall ((i Int) (N Int) (pos Int) (a (Array Int Int)) (vabs_0_f_f Int)) (=> (assign_157_22_8_abs0 vabs_0_f_f (select a vabs_0_f_f) pos N i) (while_223_23_1_abs0 vabs_0_f_f (select a vabs_0_f_f) pos N 0))))
(assert (forall ((a (Array Int Int)) (pos Int) (N Int) (i Int) (vabs_0_f_f Int)) (=> (and (while_223_23_1_abs0 vabs_0_f_f (select a vabs_0_f_f) pos N i) (< i pos)) (assert_197_25_10_abs0 vabs_0_f_f (select a vabs_0_f_f) pos N i))))
(assert (forall ((a (Array Int Int)) (pos Int) (N Int) (i Int) (vabs_0_f_f Int)) (=> (and (while_223_23_1_abs0 vabs_0_f_f (select a vabs_0_f_f) pos N i) (not (< i pos))) (assert_247_29_8_abs0 vabs_0_f_f (select a vabs_0_f_f) pos N i))))
(assert (forall ((k Int) (i Int) (N Int) (pos Int) (a (Array Int Int))) (=> (and (assert_197_25_10_abs0 k (select a k) pos N i) (>= k 0) (< k pos)) (= (select a k) 0))))
(assert (forall ((i Int) (N Int) (pos Int) (a (Array Int Int)) (vabs_0_f_f Int)) (=> (assert_197_25_10_abs0 vabs_0_f_f (select a vabs_0_f_f) pos N i) (assert_211_26_10_abs0 vabs_0_f_f (select a vabs_0_f_f) pos N i))))
(assert (forall ((i Int) (N Int) (pos Int) (a (Array Int Int))) (=> (assert_211_26_10_abs0 i (select a i) pos N i) (= (select a i) 0))))
(assert (forall ((i Int) (N Int) (pos Int) (a (Array Int Int)) (vabs_0_f_f Int)) (=> (assert_211_26_10_abs0 vabs_0_f_f (select a vabs_0_f_f) pos N i) (assign_220_27_3_abs0 vabs_0_f_f (select a vabs_0_f_f) pos N i))))
(assert (forall ((i Int) (N Int) (pos Int) (a (Array Int Int)) (vabs_0_f_f Int)) (=> (assign_220_27_3_abs0 vabs_0_f_f (select a vabs_0_f_f) pos N i) (while_223_23_1_abs0 vabs_0_f_f (select a vabs_0_f_f) pos N (+ i 1)))))
(assert (forall ((i Int) (N Int) (pos Int) (a (Array Int Int))) (=> (assert_247_29_8_abs0 pos (select a pos) pos N i) (or (not (= (select a pos) 0)) (= pos (- 0 1))))))
(assert (forall ((i Int) (N Int) (pos Int) (a (Array Int Int)) (vabs_0_f_f Int)) (=> (assert_247_29_8_abs0 vabs_0_f_f (select a vabs_0_f_f) pos N i) (end_abs0 vabs_0_f_f (select a vabs_0_f_f) pos N i))))
(check-sat)